NAME: test50
TYPE: TSP
DIMENSION: 15
EDGE_WEIGHT_TYPE: EUC_2D
NODE_COORD_SECTION
1 91.03729477435436 88.77003152147235
2 53.56350514074164 34.30286843445879
3 24.126550854838957 14.302512948941393
4 84.35786456836689 72.5594044436299
5 81.6081765086321 28.759496669573593
6 23.850051978461384 77.33537499025837
7 87.21220272221517 99.69427711203507
8 32.639367554996156 55.80587785989276
9 38.209543409268555 17.26712445265097
10 40.496748423655845 43.504845570062244
11 50.61620209106012 41.191121533388355
12 24.04755911319293 1.5288322885953165
13 47.38569738465883 7.698920471495452
14 26.175509666900297 68.82420797073385
15 39.114575589089185 54.96666446591223
EOF
